c preprocessed version of celar03-wpp, 38 vertices, 238 edges
p td 38 238
1 0
4 0
6 0
8 0
9 0
10 0
11 0
0 12
0 13
0 24
26 0
2 1
1 7
1 5
1 8
1 19
1 23
1 11
1 18
25 1
2 3
2 6
2 21
2 17
2 14
2 20
2 13
2 22
2 18
2 23
2 24
3 4
3 5
3 6
3 9
3 21
3 17
3 20
3 13
3 22
3 18
3 23
3 14
3 15
3 24
4 5
4 6
4 9
4 10
4 21
4 17
4 20
4 28
4 30
4 13
4 29
4 18
4 24
4 12
4 15
4 22
5 6
5 9
5 10
5 27
5 21
5 20
5 28
5 30
5 13
5 15
5 23
5 11
5 19
7 6
6 9
6 16
6 17
6 19
6 15
6 18
6 24
6 10
6 11
6 12
6 21
6 20
6 22
6 27
6 28
6 30
6 13
7 8
7 19
7 11
7 18
25 7
8 9
8 10
8 11
8 12
8 13
8 19
25 8
9 10
9 11
9 12
9 18
9 13
10 11
10 12
10 18
10 13
11 12
11 19
11 13
12 13
12 24
26 12
14 13
27 13
28 13
30 13
13 22
13 23
14 15
14 18
21 14
14 20
14 22
14 23
16 15
15 24
16 17
16 18
16 24
17 18
17 24
19 18
18 24
19 20
19 22
19 24
25 19
21 20
20 22
20 23
21 22
21 23
22 23
25 26
27 28
27 30
28 29
28 30
30 29
31 0
31 2
31 4
31 5
31 9
31 11
31 17
31 21
31 32
31 33
31 37
31 27
31 36
31 34
31 35
32 0
32 1
32 2
32 3
32 4
32 5
32 6
32 7
32 9
32 10
32 11
32 13
32 14
32 16
32 17
32 18
32 19
32 20
32 21
32 22
32 23
32 24
32 37
32 27
32 30
32 29
32 33
32 36
32 34
32 35
33 2
33 3
33 4
33 5
33 6
33 9
33 10
33 13
33 16
33 18
33 24
33 29
33 36
33 34
33 35
34 36
34 0
34 12
34 35
34 25
34 26
35 36
35 25
35 37
35 26
35 27
36 37
36 2
36 17
37 33
37 34
37 5
37 6
37 13
37 28
37 27
37 30
